(set-info :smt-lib-version 2.6)
(set-logic UFNRA)
(set-info :source |
Generated by: Geoff Sutcliffe
Generated on: 2026-03-11
Generator: TPTPWorld
Application: Benchmarking automated theorem provers
Time limit: 120.0

These benchmarks are translations from the TPTP Library (Thousands of
Problems for Theorem Provers), see http://www.cs.miami.edu/~tptp/

The TPTP is maintained by Geoff Sutcliffe, and he contributed this
selection of benchmarks to SMT-LIB.  They were exported from the
v9.2.1 realease of TPTP.
|)
(set-info :category "industrial")
(set-info :status "unknown")
; SZS status Success
(declare-sort $$unsorted 0)
(declare-fun tptp.f0 (Real) Real)
(declare-fun tptp.l0 () Real)
(declare-fun tptp.a () Real)
(declare-fun tptp.f1 (Real) Real)
(declare-fun tptp.l1 () Real)
(assert (forall ((Epsilon Real)) (=> (< 0.0 Epsilon) (exists ((Delta Real)) (and (< 0.0 Delta) (forall ((X Real)) (let ((_let_1 (- (tptp.f0 X) tptp.l0))) (let ((_let_2 (>= _let_1 0.0))) (let ((_let_3 (- X tptp.a))) (let ((_let_4 (>= _let_3 0.0))) (=> (and (not (= X tptp.a)) (=> _let_4 (< _let_3 Delta)) (=> (not _let_4) (< (- _let_3) Delta))) (and (=> _let_2 (< _let_1 Epsilon)) (=> (not _let_2) (< (- _let_1) Epsilon))))))))))))))
(assert (forall ((Epsilon Real)) (=> (< 0.0 Epsilon) (exists ((Delta Real)) (and (< 0.0 Delta) (forall ((X Real)) (let ((_let_1 (- (tptp.f1 X) tptp.l1))) (let ((_let_2 (>= _let_1 0.0))) (let ((_let_3 (- X tptp.a))) (let ((_let_4 (>= _let_3 0.0))) (=> (and (not (= X tptp.a)) (=> _let_4 (< _let_3 Delta)) (=> (not _let_4) (< (- _let_3) Delta))) (and (=> _let_2 (< _let_1 Epsilon)) (=> (not _let_2) (< (- _let_1) Epsilon))))))))))))))
(assert (not (forall ((Epsilon Real)) (=> (< 0.0 Epsilon) (exists ((Delta Real)) (and (< 0.0 Delta) (forall ((X Real)) (let ((_let_1 (- (/ 68.0 22.0)))) (let ((_let_2 (/ 84.0 64.0))) (let ((_let_3 (- (/ 63.0 33.0)))) (let ((_let_4 (/ 80.0 65.0))) (let ((_let_5 (/ 16.0 6.0))) (let ((_let_6 (/ 13.0 87.0))) (let ((_let_7 (- 72.0))) (let ((_let_8 (/ 38.0 100.0))) (let ((_let_9 (- (/ 27.0 17.0)))) (let ((_let_10 (- (/ 2.0 93.0)))) (let ((_let_11 (/ 12.0 64.0))) (let ((_let_12 (- (/ 24.0 32.0)))) (let ((_let_13 (/ 89.0 40.0))) (let ((_let_14 (/ 14.0 81.0))) (let ((_let_15 (/ 20.0 39.0))) (let ((_let_16 (/ 52.0 80.0))) (let ((_let_17 (tptp.f1 X))) (let ((_let_18 (tptp.f0 X))) (let ((_let_19 (- (+ (* _let_16 _let_18) (+ (* _let_15 _let_18) (+ (* _let_14 _let_18) (+ (* _let_13 _let_18) (+ (* _let_12 _let_17) (+ (* _let_11 _let_18) (+ (* _let_10 _let_18) (+ (* _let_9 _let_17) (+ (* _let_8 _let_18) (+ (* _let_7 _let_17) (+ (* _let_6 _let_17) (+ (* _let_5 _let_17) (+ (* _let_4 _let_18) (+ (* _let_3 _let_18) (+ (* _let_2 _let_17) (* _let_1 _let_17)))))))))))))))) (+ (* _let_16 tptp.l0) (+ (* _let_15 tptp.l0) (+ (* _let_14 tptp.l0) (+ (* _let_13 tptp.l0) (+ (* _let_12 tptp.l1) (+ (* _let_11 tptp.l0) (+ (* _let_10 tptp.l0) (+ (* _let_9 tptp.l1) (+ (* _let_8 tptp.l0) (+ (* _let_7 tptp.l1) (+ (* _let_6 tptp.l1) (+ (* _let_5 tptp.l1) (+ (* _let_4 tptp.l0) (+ (* _let_3 tptp.l0) (+ (* _let_2 tptp.l1) (* _let_1 tptp.l1))))))))))))))))))) (let ((_let_20 (>= _let_19 0.0))) (let ((_let_21 (- X tptp.a))) (let ((_let_22 (>= _let_21 0.0))) (=> (and (not (= X tptp.a)) (=> _let_22 (< _let_21 Delta)) (=> (not _let_22) (< (- _let_21) Delta))) (and (=> _let_20 (< _let_19 Epsilon)) (=> (not _let_20) (< (- _let_19) Epsilon)))))))))))))))))))))))))))))))))
(check-sat)
